
Gurobi 9.0.1 (linux64) logging started Thu Apr 30 05:57:50 2020

Gurobi Optimizer version 9.0.1 build v9.0.1rc0 (linux64)
Optimize a model with 860 rows, 990 columns and 6912 nonzeros
Model fingerprint: 0x37785fca
Variable types: 0 continuous, 990 integer (980 binary)
Coefficient statistics:
  Matrix range     [1e+00, 5e+00]
  Objective range  [6e+00, 1e+02]
  Bounds range     [1e+00, 1e+00]
  RHS range        [1e+00, 1e+00]

User MIP start produced solution with objective 495 (0.00s)
Loaded user MIP start with objective 495

Presolve removed 182 rows and 348 columns
Presolve time: 0.06s
Presolved: 678 rows, 642 columns, 4950 nonzeros
Variable types: 0 continuous, 642 integer (634 binary)

Root relaxation: objective 3.851158e+02, 650 iterations, 0.03 seconds

    Nodes    |    Current Node    |     Objective Bounds      |     Work
 Expl Unexpl |  Obj  Depth IntInf | Incumbent    BestBd   Gap | It/Node Time

     0     0  385.11584    0  260  495.00000  385.11584  22.2%     -    0s
     0     0  411.12161    0  288  495.00000  411.12161  16.9%     -    0s
     0     0  411.30490    0  282  495.00000  411.30490  16.9%     -    0s
     0     0  411.31556    0  280  495.00000  411.31556  16.9%     -    0s
     0     0  418.10761    0  295  495.00000  418.10761  15.5%     -    0s
     0     0  418.37042    0  295  495.00000  418.37042  15.5%     -    0s
     0     0  418.43666    0  296  495.00000  418.43666  15.5%     -    0s
     0     0  418.46960    0  298  495.00000  418.46960  15.5%     -    0s
     0     0  418.46960    0  298  495.00000  418.46960  15.5%     -    0s
     0     0  427.78673    0  297  495.00000  427.78673  13.6%     -    0s
     0     0  428.74867    0  292  495.00000  428.74867  13.4%     -    0s
     0     0  428.90267    0  298  495.00000  428.90267  13.4%     -    0s
     0     0  428.94432    0  297  495.00000  428.94432  13.3%     -    0s
     0     0  428.94550    0  303  495.00000  428.94550  13.3%     -    0s
     0     0  431.62418    0  293  495.00000  431.62418  12.8%     -    0s
     0     0  432.40487    0  298  495.00000  432.40487  12.6%     -    1s
     0     0  432.64641    0  299  495.00000  432.64641  12.6%     -    1s
     0     0  432.74211    0  299  495.00000  432.74211  12.6%     -    1s
     0     0  432.74609    0  299  495.00000  432.74609  12.6%     -    1s
     0     0  433.80725    0  306  495.00000  433.80725  12.4%     -    1s
     0     0  433.92661    0  306  495.00000  433.92661  12.3%     -    1s
     0     0  433.93250    0  299  495.00000  433.93250  12.3%     -    1s
     0     0  434.30170    0  310  495.00000  434.30170  12.3%     -    1s
     0     0  434.31912    0  309  495.00000  434.31912  12.3%     -    1s
     0     0  434.58532    0  312  495.00000  434.58532  12.2%     -    1s
     0     0  434.58532    0  311  495.00000  434.58532  12.2%     -    1s
     0     0  434.65438    0  264  495.00000  434.65438  12.2%     -    1s
     0     0  434.65438    0  303  495.00000  434.65438  12.2%     -    1s
     0     0  434.65438    0  296  495.00000  434.65438  12.2%     -    1s
     0     0  434.65438    0  299  495.00000  434.65438  12.2%     -    1s
     0     0  434.65438    0  300  495.00000  434.65438  12.2%     -    1s
     0     0  434.65438    0  300  495.00000  434.65438  12.2%     -    1s
     0     0  434.65438    0  299  495.00000  434.65438  12.2%     -    1s
     0     0  434.65438    0  302  495.00000  434.65438  12.2%     -    1s
     0     0  434.65438    0  303  495.00000  434.65438  12.2%     -    1s
     0     0  436.80403    0  303  495.00000  436.80403  11.8%     -    1s
     0     0  437.63656    0  310  495.00000  437.63656  11.6%     -    2s
     0     0  437.77376    0  302  495.00000  437.77376  11.6%     -    2s
     0     0  437.79483    0  306  495.00000  437.79483  11.6%     -    2s
     0     0  439.97565    0  309  495.00000  439.97565  11.1%     -    2s
     0     0  440.35987    0  312  495.00000  440.35987  11.0%     -    2s
     0     0  440.39752    0  317  495.00000  440.39752  11.0%     -    2s
     0     0  440.75992    0  318  495.00000  440.75992  11.0%     -    2s
     0     0  440.76300    0  322  495.00000  440.76300  11.0%     -    2s
     0     0  440.87171    0  317  495.00000  440.87171  10.9%     -    2s
     0     0  440.87171    0  317  495.00000  440.87171  10.9%     -    2s
H    0     0                     486.0000000  440.92327  9.28%     -    2s
     0     2  440.92327    0  316  486.00000  440.92327  9.28%     -    2s
H   81    17                     466.0000000  457.71668  1.78%   115    3s

Cutting planes:
  MIR: 20
  Zero half: 22
  RLT: 176

Explored 108 nodes (16319 simplex iterations) in 3.77 seconds
Thread count was 1 (of 40 available processors)

Solution count 3: 466 486 495 

Optimal solution found (tolerance 1.00e-04)
Best objective 4.660000000000e+02, best bound 4.660000000000e+02, gap 0.0000%

User-callback calls 1134, time in user-callback 0.00 sec
